sat
(:max-memory          18.32
 :memory              17.61
 :num-allocs          5182472
 :rlimit-count        153394
 :sls-constraints     1162
 :sls-ddfw-flips      267705.00
 :sls-ddfw-reinits    7
 :sls-ddfw-restarts   82
 :sls-ddfw-shifts     83483.00
 :sls.euf-conflict    1162
 :solve-eqs-elim-vars 4
 :solve-eqs-steps     8
 :time                0.18
 :total-time          0.17)
